NAME : in_house_9_14
TYPE : TSP
DIMENSION : 9
EDGE_WEIGHT_TYPE : EXPLICIT
EDGE_WEIGHT_FORMAT : UPPER_ROW
COMMENT : INVERSION_SHIFT=6
EDGE_WEIGHT_SECTION
3
26
10
79
26
20
71
49
62
12
23
4
72
2
2
80
18
54
46
60
69
56
19
15
24
67
27
34
61
20
57
43
62
31
33
53
